# Solution for model master_model
# Objective value = 22844
_f[9,Do_nothing] 0
_f[9,R1] 0
_f[9,R2] 0
_f[9,R3] 1
_f[6,Do_nothing] 1
_f[6,R1] 0
_f[6,R2] 0
_f[6,R3] 0
_f[2,Do_nothing] 0
_f[2,R1] 0
_f[2,R2] 0
_f[2,R3] 1
_f[10,Do_nothing] 1
_f[10,R1] 0
_f[10,R2] 0
_f[10,R3] 0
_f[5,Do_nothing] 1
_f[5,R1] 0
_f[5,R2] 0
_f[5,R3] 0
_f[1,Do_nothing] 1
_f[1,R1] 0
_f[1,R2] 0
_f[1,R3] 0
_f[4,Do_nothing] 1
_f[4,R1] 0
_f[4,R2] 0
_f[4,R3] 0
_f[8,Do_nothing] 0
_f[8,R1] 0
_f[8,R2] 0
_f[8,R3] 1
_f[3,Do_nothing] 0
_f[3,R1] 0
_f[3,R2] 0
_f[3,R3] 1
_f[7,Do_nothing] 1
_f[7,R1] 0
_f[7,R2] 0
_f[7,R3] 0
_Theta 22844
_r0[9,Do_nothing,Do_nothing] 0
_r0[9,Do_nothing,Recover] 0
_r0[9,R1,Do_nothing] 0
_r0[9,R1,Recover] 0
_r0[9,R2,Do_nothing] 0
_r0[9,R2,Recover] 0
_r0[9,R3,Do_nothing] 1
_r0[9,R3,Recover] 0
_r0[6,Do_nothing,Do_nothing] 1
_r0[6,Do_nothing,Recover] 0
_r0[6,R1,Do_nothing] 0
_r0[6,R1,Recover] 0
_r0[6,R2,Do_nothing] 0
_r0[6,R2,Recover] 0
_r0[6,R3,Do_nothing] 0
_r0[6,R3,Recover] 0
_r0[2,Do_nothing,Do_nothing] 0
_r0[2,Do_nothing,Recover] 0
_r0[2,R1,Do_nothing] 0
_r0[2,R1,Recover] 0
_r0[2,R2,Do_nothing] 0
_r0[2,R2,Recover] 0
_r0[2,R3,Do_nothing] 1
_r0[2,R3,Recover] 0
_r0[10,Do_nothing,Do_nothing] 1
_r0[10,Do_nothing,Recover] 0
_r0[10,R1,Do_nothing] 0
_r0[10,R1,Recover] 0
_r0[10,R2,Do_nothing] 0
_r0[10,R2,Recover] 0
_r0[10,R3,Do_nothing] 0
_r0[10,R3,Recover] 0
_r0[5,Do_nothing,Do_nothing] 1
_r0[5,Do_nothing,Recover] 0
_r0[5,R1,Do_nothing] 0
_r0[5,R1,Recover] 0
_r0[5,R2,Do_nothing] 0
_r0[5,R2,Recover] 0
_r0[5,R3,Do_nothing] 0
_r0[5,R3,Recover] 0
_r0[1,Do_nothing,Do_nothing] 1
_r0[1,Do_nothing,Recover] 0
_r0[1,R1,Do_nothing] 0
_r0[1,R1,Recover] 0
_r0[1,R2,Do_nothing] 0
_r0[1,R2,Recover] 0
_r0[1,R3,Do_nothing] 0
_r0[1,R3,Recover] 0
_r0[4,Do_nothing,Do_nothing] 1
_r0[4,Do_nothing,Recover] 0
_r0[4,R1,Do_nothing] 0
_r0[4,R1,Recover] 0
_r0[4,R2,Do_nothing] 0
_r0[4,R2,Recover] 0
_r0[4,R3,Do_nothing] 0
_r0[4,R3,Recover] 0
_r0[8,Do_nothing,Do_nothing] 0
_r0[8,Do_nothing,Recover] 0
_r0[8,R1,Do_nothing] 0
_r0[8,R1,Recover] 0
_r0[8,R2,Do_nothing] 0
_r0[8,R2,Recover] 0
_r0[8,R3,Do_nothing] 1
_r0[8,R3,Recover] 0
_r0[3,Do_nothing,Do_nothing] 0
_r0[3,Do_nothing,Recover] 0
_r0[3,R1,Do_nothing] 0
_r0[3,R1,Recover] 0
_r0[3,R2,Do_nothing] 0
_r0[3,R2,Recover] 0
_r0[3,R3,Do_nothing] 1
_r0[3,R3,Recover] 0
_r0[7,Do_nothing,Do_nothing] 1
_r0[7,Do_nothing,Recover] 0
_r0[7,R1,Do_nothing] 0
_r0[7,R1,Recover] 0
_r0[7,R2,Do_nothing] 0
_r0[7,R2,Recover] 0
_r0[7,R3,Do_nothing] 0
_r0[7,R3,Recover] 0
_r1[9,Do_nothing,Do_nothing] 0
_r1[9,Do_nothing,Recover] 0
_r1[9,R1,Do_nothing] 0
_r1[9,R1,Recover] 0
_r1[9,R2,Do_nothing] 0
_r1[9,R2,Recover] 0
_r1[9,R3,Do_nothing] 1
_r1[9,R3,Recover] 0
_r1[6,Do_nothing,Do_nothing] 1
_r1[6,Do_nothing,Recover] 0
_r1[6,R1,Do_nothing] 0
_r1[6,R1,Recover] 0
_r1[6,R2,Do_nothing] 0
_r1[6,R2,Recover] 0
_r1[6,R3,Do_nothing] 0
_r1[6,R3,Recover] 0
_r1[2,Do_nothing,Do_nothing] 0
_r1[2,Do_nothing,Recover] 0
_r1[2,R1,Do_nothing] 0
_r1[2,R1,Recover] 0
_r1[2,R2,Do_nothing] 0
_r1[2,R2,Recover] 0
_r1[2,R3,Do_nothing] 1
_r1[2,R3,Recover] 0
_r1[10,Do_nothing,Do_nothing] 1
_r1[10,Do_nothing,Recover] 0
_r1[10,R1,Do_nothing] 0
_r1[10,R1,Recover] 0
_r1[10,R2,Do_nothing] 0
_r1[10,R2,Recover] 0
_r1[10,R3,Do_nothing] 0
_r1[10,R3,Recover] 0
_r1[5,Do_nothing,Do_nothing] 1
_r1[5,Do_nothing,Recover] 0
_r1[5,R1,Do_nothing] 0
_r1[5,R1,Recover] 0
_r1[5,R2,Do_nothing] 0
_r1[5,R2,Recover] 0
_r1[5,R3,Do_nothing] 0
_r1[5,R3,Recover] 0
_r1[1,Do_nothing,Do_nothing] 1
_r1[1,Do_nothing,Recover] 0
_r1[1,R1,Do_nothing] 0
_r1[1,R1,Recover] 0
_r1[1,R2,Do_nothing] 0
_r1[1,R2,Recover] 0
_r1[1,R3,Do_nothing] 0
_r1[1,R3,Recover] 0
_r1[4,Do_nothing,Do_nothing] 1
_r1[4,Do_nothing,Recover] 0
_r1[4,R1,Do_nothing] 0
_r1[4,R1,Recover] 0
_r1[4,R2,Do_nothing] 0
_r1[4,R2,Recover] 0
_r1[4,R3,Do_nothing] 0
_r1[4,R3,Recover] 0
_r1[8,Do_nothing,Do_nothing] 0
_r1[8,Do_nothing,Recover] 0
_r1[8,R1,Do_nothing] 0
_r1[8,R1,Recover] 0
_r1[8,R2,Do_nothing] 0
_r1[8,R2,Recover] 0
_r1[8,R3,Do_nothing] 1
_r1[8,R3,Recover] 0
_r1[3,Do_nothing,Do_nothing] 0
_r1[3,Do_nothing,Recover] 0
_r1[3,R1,Do_nothing] 0
_r1[3,R1,Recover] 0
_r1[3,R2,Do_nothing] 0
_r1[3,R2,Recover] 0
_r1[3,R3,Do_nothing] 1
_r1[3,R3,Recover] 0
_r1[7,Do_nothing,Do_nothing] 1
_r1[7,Do_nothing,Recover] 0
_r1[7,R1,Do_nothing] 0
_r1[7,R1,Recover] 0
_r1[7,R2,Do_nothing] 0
_r1[7,R2,Recover] 0
_r1[7,R3,Do_nothing] 0
_r1[7,R3,Recover] 0
